128460
0 75 73 74 55 54 53 52 49 45 44 43 40 41 56 68 67 66 65 4 3 15 14 13 16 17 19 18 23 22 20 21 2 1 71 70 69 62 58 39 36 37 38 60 59 61 7 6 10 11 12 27 26 24 25 34 33 32 31 28 29 30 8 9 5 64 63 57 42 47 46 35 51 50 48 72 
